9
0, 267, 505, 681, 314, 216, 122, 482, 333
267, 0, 682, 764, 215, 111, 379, 457, 509
505, 682, 0, 296, 539, 574, 515, 437, 176
681, 764, 296, 0, 564, 655, 735, 350, 377
314, 215, 539, 564, 0, 129, 434, 242, 385
216, 111, 574, 655, 129, 0, 338, 362, 403
122, 379, 515, 735, 434, 338, 0, 582, 363
482, 457, 437, 350, 242, 362, 582, 0, 351
333, 509, 176, 377, 385, 403, 363, 351, 0
